;; Original file: adr_136.smt2
(set-logic HORN)
(declare-fun |sum$unknown:2| (Int Int) Bool)


(assert (forall ((|$knormal:2| Int)
         (|$alpha-1:n| Int)
         (|$knormal:1| Int)
         (|$V-reftype:10| Int)
         (|$knormal:3| Int))
  (let ((a!1 (and (= |$knormal:2| (- |$alpha-1:n| 1))
                  (= (not (= 0 |$knormal:1|)) (<= |$alpha-1:n| 0))
                  (= |$V-reftype:10| (+ |$alpha-1:n| |$knormal:3|))
                  (not (not (= 0 |$knormal:1|)))
                  (|sum$unknown:2| |$knormal:3| |$knormal:2|)
                  true)))
    (=> a!1 (|sum$unknown:2| |$V-reftype:10| |$alpha-1:n|)))))
(assert (forall ((|$knormal:1| Int) (|$alpha-1:n| Int) (|$V-reftype:8| Int))
  (let ((a!1 (and (= (not (= 0 |$knormal:1|)) (<= |$alpha-1:n| 0))
                  (= |$V-reftype:8| 0)
                  (not (= 0 |$knormal:1|))
                  true)))
    (=> a!1 (|sum$unknown:2| |$V-reftype:8| |$alpha-1:n|)))))
(assert (forall ((|$knormal:9| Int)
         (|$knormal:6| Int)
         (|$knormal:7| Int)
         (|$knormal:5| Int)
         (|$alpha-2:n| Int))
  (let ((a!1 (and (= (not (= 0 |$knormal:9|))
                     (<= |$knormal:6| |$knormal:7|))
                  (= |$knormal:6| (- |$knormal:5| 1))
                  (= |$knormal:5| (* 2 |$alpha-2:n|))
                  (not (not (= 0 |$knormal:9|)))
                  (|sum$unknown:2| |$knormal:7| |$alpha-2:n|))))
    (=> a!1 false))))
(check-sat)
